Grasp exp. instance_n_20_m_5_id_4.lp tipoLifted 0 szPool 5 nIteration 50 alpha 1 
Academic license - for non-commercial use only
Read LP format model from file ../input/instancesGenerated/instance_n_20_m_5_id_4.lp
Reading time = 0.00 seconds
: 5 rows, 20 columns, 100 nonzeros
Optimize a model with 5 rows, 20 columns and 100 nonzeros
Variable types: 0 continuous, 20 integer (20 binary)
Coefficient statistics:
  Matrix range     [1e+00, 1e+01]
  Objective range  [1e+00, 1e+01]
  Bounds range     [1e+00, 1e+00]
  RHS range        [5e+01, 6e+01]
Found heuristic solution: objective 48.0000000

Explored 0 nodes (0 simplex iterations) in 0.00 seconds
Thread count was 1 (of 8 available processors)

Solution count 1: 48 
No other solutions better than 0

Solution limit reached
Best objective 4.800000000000e+01, best bound -, gap -
C_1:	 3.00 x_1  = 0.000000 + 1.00 x_2  = 1.000000 + 5.00 x_3  = 0.000000 + 2.00 x_4  = 0.000000 + 6.00 x_5  = 1.000000 + 4.00 x_6  = 0.000000 + 7.00 x_7  = 1.000000 + 10.00 x_8  = 1.000000 + 2.00 x_9  = 0.324675 + 2.00 x_10  = 1.000000 + 4.00 x_11  = 1.000000 + 5.00 x_12  = 0.467532 + 10.00 x_13  = 1.000000 + 8.00 x_14  = 0.000000 + 8.00 x_15  = 0.000000 + 4.00 x_16  = 1.000000 + 10.00 x_17  = 0.000000 + 9.00 x_18  = 0.000000 + 5.00 x_19  = 0.000000 + 4.00 x_20  = 1.000000 <= 54.00
C_2:	 8.00 x_1  = 0.000000 + 6.00 x_2  = 1.000000 + 6.00 x_3  = 0.000000 + 7.00 x_4  = 0.000000 + 1.00 x_5  = 1.000000 + 7.00 x_6  = 0.000000 + 6.00 x_7  = 1.000000 + 5.00 x_8  = 1.000000 + 8.00 x_9  = 0.324675 + 10.00 x_10  = 1.000000 + 10.00 x_11  = 1.000000 + 3.00 x_12  = 0.467532 + 10.00 x_13  = 1.000000 + 6.00 x_14  = 0.000000 + 4.00 x_15  = 0.000000 + 8.00 x_16  = 1.000000 + 10.00 x_17  = 0.000000 + 2.00 x_18  = 0.000000 + 7.00 x_19  = 0.000000 + 3.00 x_20  = 1.000000 <= 63.00
C_3:	 5.00 x_1  = 0.000000 + 3.00 x_2  = 1.000000 + 10.00 x_3  = 0.000000 + 6.00 x_4  = 0.000000 + 10.00 x_5  = 1.000000 + 7.00 x_6  = 0.000000 + 1.00 x_7  = 1.000000 + 2.00 x_8  = 1.000000 + 7.00 x_9  = 0.324675 + 5.00 x_10  = 1.000000 + 5.00 x_11  = 1.000000 + 6.00 x_12  = 0.467532 + 10.00 x_13  = 1.000000 + 3.00 x_14  = 0.000000 + 3.00 x_15  = 0.000000 + 3.00 x_16  = 1.000000 + 9.00 x_17  = 0.000000 + 10.00 x_18  = 0.000000 + 7.00 x_19  = 0.000000 + 9.00 x_20  = 1.000000 <= 60.00
C_4:	 10.00 x_1  = 0.000000 + 6.00 x_2  = 1.000000 + 3.00 x_3  = 0.000000 + 9.00 x_4  = 0.000000 + 1.00 x_5  = 1.000000 + 8.00 x_6  = 0.000000 + 8.00 x_7  = 1.000000 + 2.00 x_8  = 1.000000 + 9.00 x_9  = 0.324675 + 5.00 x_10  = 1.000000 + 7.00 x_11  = 1.000000 + 5.00 x_12  = 0.467532 + 7.00 x_13  = 1.000000 + 8.00 x_14  = 0.000000 + 2.00 x_15  = 0.000000 + 8.00 x_16  = 1.000000 + 6.00 x_17  = 0.000000 + 2.00 x_18  = 0.000000 + 9.00 x_19  = 0.000000 + 2.00 x_20  = 1.000000 <= 58.00
C_5:	 6.00 x_1  = 0.000000 + 6.00 x_2  = 1.000000 + 8.00 x_3  = 0.000000 + 7.00 x_4  = 0.000000 + 8.00 x_5  = 1.000000 + 2.00 x_6  = 0.000000 + 9.00 x_7  = 1.000000 + 8.00 x_8  = 1.000000 + 1.00 x_9  = 0.324675 + 7.00 x_10  = 1.000000 + 6.00 x_11  = 1.000000 + 10.00 x_12  = 0.467532 + 2.00 x_13  = 1.000000 + 10.00 x_14  = 0.000000 + 1.00 x_15  = 0.000000 + 5.00 x_16  = 1.000000 + 7.00 x_17  = 0.000000 + 8.00 x_18  = 0.000000 + 8.00 x_19  = 0.000000 + 7.00 x_20  = 1.000000 <= 63.00
Solution initial: 78.025974 
Number Constraints Used in Cover:5
GRASP Method!
Number cuts repeat: 0
value: 78.025974
Number Constraints Used in Cover:10
GRASP Method!
Number cuts repeat: 0
value: 78.025974
Number Constraints Used in Cover:18
GRASP Method!
Number cuts repeat: 0
value: 78.025974
Number Constraints Used in Cover:22
GRASP Method!
Number cuts repeat: 0
value: 78.025974
Number Constraints Used in Cover:27
GRASP Method!
Number cuts repeat: 0
value: 78.025974
Number Constraints Used in Cover:31
GRASP Method!
Number cuts repeat: 0
value: 78.025974
Number Constraints Used in Cover:38
GRASP Method!
Number cuts repeat: 0
value: 78.025974
Number Constraints Used in Cover:42
GRASP Method!
Number cuts repeat: 0
value: 78.025974
Number Constraints Used in Cover:46
GRASP Method!
Number cuts repeat: 0
value: 78.025974
Number Constraints Used in Cover:48
GRASP Method!
Number cuts repeat: 0
value: 78.025974
Number Constraints Used in Cover:52
GRASP Method!
Number cuts repeat: 0
value: 78.025974
Number Constraints Used in Cover:59
GRASP Method!
Number cuts repeat: 0
value: 78.025974
Number Constraints Used in Cover:66
GRASP Method!
Number cuts repeat: 0
value: 78.025974
Number Constraints Used in Cover:71
GRASP Method!
Number cuts repeat: 0
value: 78.025974
Number Constraints Used in Cover:76
GRASP Method!
Number cuts repeat: 0
value: 78.025974
Number Constraints Used in Cover:80
GRASP Method!
Number cuts repeat: 0
value: 78.025974
Number Constraints Used in Cover:83
GRASP Method!
Number cuts repeat: 0
value: 78.025974
Number Constraints Used in Cover:92
GRASP Method!
Number cuts repeat: 0
value: 78.025974
Number Constraints Used in Cover:100
GRASP Method!
Number cuts repeat: 0
value: 78.025974
Number Constraints Used in Cover:110
GRASP Method!
Number cuts repeat: 0
value: 78.025974
Number Constraints Used in Cover:114
GRASP Method!
Number cuts repeat: 0
value: 78.025974
Number Constraints Used in Cover:116
GRASP Method!
Number cuts repeat: 0
value: 78.025974
Number Constraints Used in Cover:122
GRASP Method!
Number cuts repeat: 0
value: 78.025974
Number Constraints Used in Cover:124
GRASP Method!
Number cuts repeat: 0
value: 78.025974
Number Constraints Used in Cover:133
GRASP Method!
Number cuts repeat: 0
value: 78.025974
Number Constraints Used in Cover:139
GRASP Method!
Number cuts repeat: 0
value: 78.025974
Number Constraints Used in Cover:144
GRASP Method!
Number cuts repeat: 0
value: 78.025974
Number Constraints Used in Cover:148
GRASP Method!
Number cuts repeat: 0
value: 78.025974
Number Constraints Used in Cover:153
GRASP Method!
Number cuts repeat: 0
value: 78.025974
Number Constraints Used in Cover:162
GRASP Method!
Number cuts repeat: 0
value: 78.025974
Number Constraints Used in Cover:180
GRASP Method!
Number cuts repeat: 0
value: 78.025974
Number Constraints Used in Cover:198
GRASP Method!
Number cuts repeat: 0
value: 78.025974
Number Constraints Used in Cover:213
GRASP Method!
Number cuts repeat: 0
value: 78.025974
Number Constraints Used in Cover:228
GRASP Method!
Number cuts repeat: 0
value: 78.025974
Number Constraints Used in Cover:241
GRASP Method!
Number cuts repeat: 0
value: 78.025974
Number Constraints Used in Cover:255
GRASP Method!
Number cuts repeat: 0
value: 78.025974
Number Constraints Used in Cover:266
GRASP Method!
Number cuts repeat: 0
value: 78.025974
Number Constraints Used in Cover:278
GRASP Method!
Number cuts repeat: 0
value: 78.025974
Number Constraints Used in Cover:292
GRASP Method!
Number cuts repeat: 0
value: 78.025974
Number Constraints Used in Cover:310
GRASP Method!
Number cuts repeat: 0
value: 78.025974
Number Constraints Used in Cover:322
GRASP Method!
Number cuts repeat: 0
value: 78.025974
Number Constraints Used in Cover:335
GRASP Method!
Number cuts repeat: 0
value: 78.025974
Number Constraints Used in Cover:346
GRASP Method!
Number cuts repeat: 0
value: 78.025974
Number Constraints Used in Cover:362
GRASP Method!
Number cuts repeat: 0
value: 78.025974
Number Constraints Used in Cover:374
GRASP Method!
Number cuts repeat: 0
value: 78.025974
Number Constraints Used in Cover:384
GRASP Method!
Number cuts repeat: 0
value: 78.025974
Number Constraints Used in Cover:396
GRASP Method!
Number cuts repeat: 0
value: 78.025974
Number Constraints Used in Cover:412
GRASP Method!
Number cuts repeat: 0
value: 78.025974
Number Constraints Used in Cover:426
GRASP Method!
Number cuts repeat: 0
value: 78.025974
Number Constraints Used in Cover:434
GRASP Method!
Number cuts repeat: 0
value: 78.025974
Number Constraints Used in Cover:445
GRASP Method!
Number cuts repeat: 0
value: 78.025974
Number Constraints Used in Cover:460
GRASP Method!
Number cuts repeat: 0
value: 78.025974
Number Constraints Used in Cover:476
GRASP Method!
Number cuts repeat: 0
value: 78.025974
Number Constraints Used in Cover:488
GRASP Method!
Number cuts repeat: 0
value: 78.025974
Number Constraints Used in Cover:500
GRASP Method!
Number cuts repeat: 0
value: 78.025974
Number Constraints Used in Cover:512
GRASP Method!
Number cuts repeat: 0
value: 78.025974
Number Constraints Used in Cover:525
GRASP Method!
Number cuts repeat: 0
value: 78.025974
Number Constraints Used in Cover:537
GRASP Method!
Number cuts repeat: 0
value: 78.025974
Number Constraints Used in Cover:546
GRASP Method!
Number cuts repeat: 0
value: 78.025974
Number Constraints Used in Cover:556
GRASP Method!
Number cuts repeat: 0
value: 78.025974
Number Constraints Used in Cover:565
GRASP Method!
Number cuts repeat: 0
value: 78.025974
Number Constraints Used in Cover:577
GRASP Method!
Number cuts repeat: 0
value: 78.025974
Number Constraints Used in Cover:585
GRASP Method!
Number cuts repeat: 0
value: 78.025974
Number Constraints Used in Cover:596
GRASP Method!
Number cuts repeat: 0
value: 78.025974
Number Constraints Used in Cover:607
GRASP Method!
Number cuts repeat: 0
value: 78.025974
Number Constraints Used in Cover:625
GRASP Method!
Number cuts repeat: 0
value: 78.025974
Number Constraints Used in Cover:638
GRASP Method!
Number cuts repeat: 0
value: 78.025974
Number Constraints Used in Cover:654
GRASP Method!
Number cuts repeat: 0
value: 78.025974
Number Constraints Used in Cover:665
GRASP Method!
Number cuts repeat: 0
value: 78.025974
Number Constraints Used in Cover:673
GRASP Method!
Number cuts repeat: 0
value: 78.025974
Number Constraints Used in Cover:681
GRASP Method!
Number cuts repeat: 0
value: 78.025974
Number Constraints Used in Cover:696
GRASP Method!
Number cuts repeat: 0
value: 78.025974
Number Constraints Used in Cover:708
GRASP Method!
Number cuts repeat: 0
value: 78.025974
Number Constraints Used in Cover:717
GRASP Method!
Number cuts repeat: 0
value: 78.025974
Number Constraints Used in Cover:726
GRASP Method!
Number cuts repeat: 0
value: 78.025974
Number Constraints Used in Cover:733
GRASP Method!
Number cuts repeat: 0
value: 78.025974
Number Constraints Used in Cover:739
GRASP Method!
Number cuts repeat: 0
value: 78.025974
Number Constraints Used in Cover:752
GRASP Method!
Number cuts repeat: 0
value: 78.025974
Number Constraints Used in Cover:764
GRASP Method!
Number cuts repeat: 0
value: 78.025974
Number Constraints Used in Cover:772
GRASP Method!
Number cuts repeat: 0
value: 78.025974
Number Constraints Used in Cover:783
GRASP Method!
Number cuts repeat: 0
value: 78.025974
Number Constraints Used in Cover:791
GRASP Method!
Number cuts repeat: 0
value: 78.025974
Number Constraints Used in Cover:800
GRASP Method!
Number cuts repeat: 0
value: 78.025974
Number Constraints Used in Cover:808
GRASP Method!
Number cuts repeat: 0
value: 78.025974
Number Constraints Used in Cover:822
GRASP Method!
Number cuts repeat: 0
value: 78.025974
Number Constraints Used in Cover:833
GRASP Method!
Number cuts repeat: 0
value: 78.025974
Number Constraints Used in Cover:839
GRASP Method!
Number cuts repeat: 0
value: 78.025974
Number Constraints Used in Cover:845
GRASP Method!
Number cuts repeat: 0
value: 78.025974
Number Cuts Final: 852
